p cnf 50 80
12 11 13 0
4 -12 -46 0
-42 -41 46 0
-26 -14 49 0
-27 -2 -42 0
-29 26 16 0
-38 -26 -8 0
44 5 37 0
-17 14 37 0
18 39 -31 0
-43 44 -28 0
43 12 -2 0
-14 22 27 0
8 -24 -38 0
18 -48 31 0
-4 -50 -44 0
11 45 15 0
1 36 -5 0
9 36 41 0
6 38 -29 0
30 -6 16 0
-40 28 -1 0
-21 30 -12 0
-31 -11 -15 0
-8 41 10 0
5 -31 -25 0
27 -13 -29 0
22 39 -11 0
-16 5 18 0
5 16 -39 0
14 41 -16 0
-42 4 -28 0
17 35 -47 0
6 -48 45 0
28 -15 21 0
13 8 12 0
40 -48 3 0
32 -21 30 0
31 3 1 0
1 -40 -21 0
3 23 27 0
39 32 18 0
-15 33 20 0
8 26 -27 0
-7 -38 19 0
16 32 -9 0
-47 39 -34 0
28 35 36 0
-47 43 -10 0
39 -50 10 0
x 3 4 8 -10 11 13 -14 -15 -16 18 -19 -20 -21 -22 -24 26 27 -29 30 31 32 -33 -34 36 -39 40 44 -46 -49 50 0
x 1 2 -4 -7 -8 -10 11 -12 -13 -17 18 20 -21 -23 24 25 26 -27 -28 -29 -32 -34 36 38 39 41 44 -45 -46 -47 48 -49 0
x 6 -7 13 -15 -16 -17 19 20 -22 25 26 -27 28 29 32 -33 34 35 -36 40 -42 -43 -44 -49 0
x -2 3 -4 -5 -6 -7 8 -9 -10 -11 -12 -14 -15 -16 -19 20 -25 29 -36 -39 40 43 45 47 48 49 50 0
x -1 -2 -3 4 -6 8 -9 -10 14 16 -17 18 -20 21 -23 -24 -25 -28 -30 -31 -32 34 37 38 40 41 -42 48 -49 -50 0
x -1 3 4 7 -9 -10 11 -17 18 -20 -22 23 25 -27 31 -32 -33 34 -39 -40 43 45 46 47 50 0
x 3 4 8 -11 -13 14 15 17 -19 22 -24 28 30 32 33 36 -37 -39 43 44 -47 48 -49 -50 0
x 2 -4 5 7 8 9 -10 12 -13 -14 16 -17 -18 -19 -20 21 26 27 29 -30 32 42 43 -44 47 49 50 0
x -1 2 5 9 10 -11 -13 15 20 -23 28 30 -33 -36 41 42 46 -49 0
x -4 6 -8 -9 -11 -12 -13 -14 -17 19 22 -24 25 26 -27 -30 -33 -36 37 39 -40 -46 -50 0
x 1 2 -3 -4 -5 -6 -8 9 -12 -13 14 16 -17 19 22 24 -26 27 -29 -30 -38 -40 43 44 45 0
x 1 2 3 -5 -6 8 -9 -10 -13 -14 15 -16 -17 -18 19 -24 25 27 -28 -31 32 35 -37 43 -44 -45 -48 -49 -50 0
x 4 5 -7 -8 -14 16 17 -19 21 23 25 26 28 -31 32 -34 -36 -37 -38 -40 -42 43 44 -45 -47 49 0
x -1 2 4 -7 -8 12 18 19 21 -27 -29 32 -33 -36 -37 38 -39 40 41 42 44 47 48 50 0
x -1 -3 -5 -6 8 -9 -10 13 15 17 19 28 29 -33 35 36 -38 -39 40 42 -45 -46 -47 49 0
x 1 2 5 -6 -9 -10 11 12 -13 -14 18 -20 -21 22 23 -26 -28 29 30 36 39 -42 -44 -45 46 -50 0
x -2 3 4 8 9 10 -13 14 -15 -16 -17 19 -20 -22 23 -24 27 29 -31 35 36 40 41 42 43 -45 47 48 49 0
x -1 -3 4 6 -7 -9 -11 -14 15 -16 -17 19 -23 -26 -30 32 35 -38 39 45 46 47 50 0
x 2 4 -5 8 -10 11 -14 16 -21 22 -23 -24 28 31 -32 -34 37 -38 39 41 -43 44 -45 0
x 1 -2 7 -10 -11 -15 22 24 26 -27 28 -29 33 34 35 -36 -37 38 -39 -42 43 44 45 47 49 0
x -1 -3 -6 -8 10 -11 -13 15 18 -19 20 22 24 25 -27 -31 37 38 40 -41 -42 -43 -45 -46 -47 49 0
x 1 3 -6 7 9 -10 12 13 -14 -15 20 21 22 23 25 -31 -32 33 34 35 -36 -38 -39 40 -41 43 45 47 48 -49 50 0
x -2 3 9 -11 13 -14 -15 16 17 20 24 27 -28 29 -32 33 34 -35 37 38 42 -43 -44 47 -50 0
x 1 2 -3 7 8 -9 -13 -14 -20 -21 -23 -25 26 -27 32 35 -37 -40 -44 -45 0
x -2 5 9 11 -12 -13 -16 -17 18 -19 -21 22 24 25 -26 29 -30 35 36 37 39 40 41 -42 -43 46 47 0
x -4 -5 -9 10 11 12 13 -15 -19 -21 -22 -25 27 30 32 -34 35 40 41 42 -43 44 46 47 -50 0
x -1 -2 3 8 -10 12 14 -18 -19 -21 23 24 -25 -26 -28 30 -31 -33 34 36 -39 41 47 -48 49 -50 0
x -1 -8 9 -10 12 13 -16 -19 -20 21 -22 25 26 -29 36 37 38 40 42 -43 -45 -46 47 50 0
x 2 -7 -9 -13 -14 16 -17 20 21 22 -23 -26 -28 29 -30 -31 32 34 -42 -43 -44 45 -47 48 -49 0
x 1 3 -4 5 -7 8 -9 -10 -11 -12 -17 -18 19 20 -21 22 24 25 -26 30 -31 -33 -35 -40 41 -44 -46 0
